p cnf 10 45
-8 9 5 0
-4 6 2 0
3 -8 2 0
-7 8 6 0
-6 -5 -4 0
-8 2 7 0
9 7 -8 0
-8 3 -4 0
3 -5 6 0
-4 10 -1 0
5 9 -8 0
-2 5 -8 0
2 -1 5 0
5 2 10 0
-2 9 5 0
2 7 5 0
3 6 2 0
2 6 -4 0
3 10 -8 0
1 9 10 0
2 10 6 0
10 -4 6 0
2 3 -4 0
3 -1 10 0
1 9 -7 0
2 3 4 0
9 7 -8 0
1 -8 -4 0
7 6 10 0
5 1 -8 0
5 -8 2 0
10 -4 -2 0
-3 2 1 0
3 10 -6 0
2 -4 -5 0
6 -5 9 0
3 1 -4 0
7 -8 -4 0
2 -8 3 0
8 3 5 0
9 -1 6 0
-8 4 3 0
1 6 -7 0
-8 -2 3 0
-8 -2 7 0
%
0